20	100	100	100
14	9	100
73	71	100
96	31	100
2	27	100
42	71	100
12	76	100
74	97	100
67	29	100
83	31	100
79	41	100
37	48	100
51	62	100
81	51	100
26	90	100
34	69	100
11	39	100
44	33	100
18	98	100
92	35	100
56	20	100
